c CNF-Signature AND_8
c 
c $p 8 1
c $m (1,2,3,4,5,6,7,8,9)
c $i 1
c $i 2
c $i 3
c $i 4
c $i 5
c $i 6
c $i 7
c $i 8
c $o 9
p cnf 9 9
1 -9 0
2 -9 0
3 -9 0
4 -9 0
5 -9 0
6 -9 0
7 -9 0
8 -9 0
-1 -2 -3 -4 -5 -6 -7 -8 9 0
